15
1 0 1
2 0 1
2 1 1
3 0 1
3 1 1
4 2 1
5 0 1
5 1 1
6 1 1
6 3 1
6 5 1
7 2 1
7 3 1
7 4 1
8 0 1
8 1 1
8 2 1
8 3 1
8 4 1
8 5 1
8 6 1
8 7 1
9 0 1
9 1 1
9 2 1
9 4 1
9 5 1
9 6 1
9 8 1
10 0 1
10 1 1
10 2 1
10 3 1
10 6 1
10 9 1
11 0 1
11 1 1
11 3 1
11 5 1
11 6 1
12 0 1
12 3 1
12 4 1
12 9 1
12 11 1
13 6 1
13 11 1
14 2 1
14 5 1
14 6 1
14 7 1
14 10 1
14 11 1
14 12 1
